
   7    4
  10   10   10   10

   0   0   0   0   0   2 2 6 
   2  10  10  10  10   2 4 3 
  10  10  10  10  10   1 5 
   5  10  10  10  10   1 5 
   7  10  10  10  10   1 7
   4  10  10  10  10   1 7
   0   0   0   0   0   0 
